NAME : mr21
COMMENT : 21-city problem (DISC)
TYPE : TSP
DIMENSION : 21
EDGE_WEIGHT_TYPE : EUC_2D
NODE_COORD_SECTION
1 5 72
2 29 28
3 73 86
4 3 92
5 21 77
6 6 52
7 31 17
8 67 30
9 31 29
10 59 33
11 7 47
12 87 55
13 14 22
14 18 80
15 50 73
16 87 85
17 76 27
18 98 62
19 76 66
20 39 39
21 41 42
EOF
